25
1 0 14
2 0 33
2 1 47
3 0 23
3 1 7
3 2 65
4 0 31
4 1 1
4 2 22
4 3 13
5 0 55
5 1 54
5 2 11
5 3 54
5 4 43
6 0 70
6 1 43
6 2 12
6 3 32
6 4 50
6 5 68
7 0 7
7 1 26
7 2 21
7 3 21
7 4 60
7 5 7
7 6 61
8 0 27
8 1 50
8 2 3
8 3 35
8 4 4
8 5 5
8 6 16
8 7 64
9 0 3
9 1 1
9 2 34
9 3 41
9 4 65
9 5 7
9 6 25
9 7 9
9 8 36
10 0 60
10 1 47
10 2 49
10 3 61
10 4 20
10 5 34
10 6 34
10 7 4
10 8 3
10 9 9
11 0 52
11 1 64
11 2 39
11 3 34
11 4 60
11 5 42
11 6 65
11 7 39
11 8 22
11 9 62
11 10 26
12 0 11
12 1 57
12 2 13
12 3 59
12 4 15
12 5 34
12 6 64
12 7 45
12 8 5
12 9 30
12 10 47
12 11 44
13 0 40
13 1 53
13 2 24
13 3 2
13 4 8
13 5 51
13 6 2
13 7 64
13 8 50
13 9 3
13 10 37
13 11 17
13 12 64
14 0 7
14 1 52
14 2 36
14 3 69
14 4 56
14 5 3
14 6 55
14 7 58
14 8 26
14 9 60
14 10 39
14 11 31
14 12 5
14 13 47
15 0 42
15 1 64
15 2 64
15 3 14
15 4 62
15 5 29
15 6 53
15 7 59
15 8 13
15 9 27
15 10 20
15 11 9
15 12 68
15 13 5
15 14 58
16 0 1
16 1 43
16 2 10
16 3 70
16 4 34
16 5 12
16 6 66
16 7 48
16 8 20
16 9 4
16 10 47
16 11 54
16 12 12
16 13 43
16 14 32
16 15 38
17 0 66
17 1 13
17 2 11
17 3 67
17 4 60
17 5 21
17 6 37
17 7 66
17 8 36
17 9 5
17 10 59
17 11 32
17 12 18
17 13 61
17 14 6
17 15 12
17 16 34
18 0 69
18 1 43
18 2 49
18 3 43
18 4 41
18 5 46
18 6 69
18 7 38
18 8 43
18 9 69
18 10 15
18 11 55
18 12 67
18 13 63
18 14 13
18 15 47
18 16 23
18 17 7
19 0 22
19 1 28
19 2 45
19 3 17
19 4 30
19 5 41
19 6 54
19 7 14
19 8 15
19 9 54
19 10 69
19 11 23
19 12 62
19 13 6
19 14 31
19 15 14
19 16 26
19 17 57
19 18 49
20 0 53
20 1 20
20 2 55
20 3 52
20 4 48
20 5 19
20 6 46
20 7 28
20 8 36
20 9 47
20 10 47
20 11 63
20 12 61
20 13 26
20 14 24
20 15 7
20 16 47
20 17 39
20 18 10
20 19 28
21 0 17
21 1 36
21 2 16
21 3 42
21 4 61
21 5 57
21 6 55
21 7 20
21 8 69
21 9 34
21 10 29
21 11 1
21 12 4
21 13 69
21 14 48
21 15 1
21 16 4
21 17 10
21 18 63
21 19 59
21 20 62
22 0 22
22 1 35
22 2 9
22 3 14
22 4 36
22 5 55
22 6 36
22 7 36
22 8 9
22 9 65
22 10 31
22 11 37
22 12 42
22 13 13
22 14 23
22 15 4
22 16 6
22 17 10
22 18 11
22 19 2
22 20 8
22 21 13
23 0 56
23 1 23
23 2 44
23 3 35
23 4 28
23 5 43
23 6 63
23 7 34
23 8 42
23 9 20
23 10 26
23 11 12
23 12 50
23 13 13
23 14 22
23 15 11
23 16 50
23 17 58
23 18 52
23 19 10
23 20 1
23 21 13
23 22 17
24 0 1
24 1 17
24 2 19
24 3 30
24 4 8
24 5 30
24 6 12
24 7 13
24 8 11
24 9 34
24 10 7
24 11 11
24 12 56
24 13 47
24 14 58
24 15 59
24 16 6
24 17 46
24 18 29
24 19 25
24 20 70
24 21 16
24 22 6
24 23 60
